400
400
280
280
279
277
277
277
276
276
273
273
273
272
272
271
271
271
271
270
270
269
268
267
266
266
266
265
265
265
265
264
263
263
261
260
259
258
258
257
257
255
254
254
254
253
253
252
252
252
251
250
250
250
250
249
249
249
248
248
248
248
246
246
246
244
243
242
242
241
240
240
239
238
238
238
237
237
236
236
236
236
235
235
235
235
234
234
233
233
232
231
230
229
229
229
229
229
227
224
224
224
224
223
223
223
222
221
220
220
219
218
218
217
217
216
216
216
216
215
214
214
213
213
213
212
211
210
210
210
209
209
208
208
208
208
207
207
205
205
204
204
203
201
200
200
199
198
198
198
198
197
197
197
197
197
196
196
196
195
195
194
194
192
192
192
191
191
191
190
190
190
189
189
188
188
187
186
185
184
184
184
183
183
183
182
181
180
180
179
179
179
178
178
177
177
176
175
175
175
174
173
173
172
172
171
170
170
169
168
168
168
168
168
168
167
167
167
166
165
165
164
164
162
161
161
161
160
159
158
157
156
155
155
155
154
154
154
153
152
152
152
152
152
151
151
150
150
150
150
150
149
149
148
147
146
146
145
143
143
142
142
142
142
141
141
140
140
140
139
138
138
138
136
136
135
135
134
134
133
133
132
132
131
131
131
130
130
130
129
129
128
128
127
127
127
126
125
125
125
124
123
122
122
121
121
120
119
119
119
119
118
118
117
117
117
117
116
116
115
115
114
114
114
114
113
113
112
112
111
111
110
110
108
108
108
107
107
106
106
106
105
104
104
103
103
103
102
102
101
100
100
99
99
99
97
97
97
97
97
97
96
96
96
95
95
94
94
94
93
93
93
91
91
90
90
90
89
89
89
88
88
87
87
87
87
86
86
86
85
85
85
84
83
83
83
82
81
80
80
80
80
